p edge 180 432
e 1 33
e 1 53
e 1 55
e 2 15
e 2 53
e 2 135
e 3 53
e 3 81
e 3 163
e 4 21
e 4 23
e 4 120
e 5 40
e 5 69
e 5 173
e 6 32
e 6 98
e 6 173
e 7 13
e 7 26
e 7 41
e 7 60
e 7 62
e 7 96
e 7 102
e 7 109
e 7 123
e 7 155
e 7 169
e 7 178
e 8 21
e 8 23
e 8 173
e 9 99
e 9 115
e 9 151
e 10 21
e 10 32
e 10 170
e 11 24
e 11 81
e 11 170
e 12 35
e 12 36
e 12 68
e 12 91
e 12 93
e 12 95
e 12 103
e 12 111
e 12 134
e 12 146
e 12 153
e 12 178
e 13 61
e 13 107
e 14 33
e 14 81
e 14 94
e 15 30
e 15 37
e 15 44
e 15 51
e 15 54
e 15 106
e 15 114
e 15 118
e 15 145
e 15 169
e 15 171
e 16 24
e 16 69
e 16 98
e 17 31
e 17 59
e 17 62
e 17 85
e 17 90
e 17 113
e 17 116
e 17 119
e 17 128
e 17 149
e 17 158
e 17 164
e 18 55
e 18 94
e 18 115
e 19 25
e 19 32
e 19 135
e 20 24
e 20 89
e 20 160
e 21 22
e 21 42
e 21 60
e 21 67
e 21 97
e 21 102
e 21 112
e 21 125
e 21 130
e 22 99
e 22 108
e 23 39
e 23 51
e 23 52
e 23 73
e 23 79
e 23 111
e 23 126
e 23 129
e 23 161
e 23 164
e 24 29
e 24 39
e 24 102
e 24 134
e 24 140
e 24 164
e 24 169
e 24 172
e 24 175
e 25 29
e 25 47
e 25 65
e 25 72
e 25 75
e 25 77
e 25 78
e 25 84
e 25 124
e 25 137
e 25 179
e 26 120
e 26 151
e 27 41
e 27 44
e 27 54
e 27 59
e 27 74
e 27 79
e 27 84
e 27 146
e 27 149
e 27 153
e 27 177
e 27 180
e 28 32
e 28 61
e 28 89
e 29 33
e 30 81
e 30 138
e 31 33
e 31 63
e 32 34
e 32 67
e 32 71
e 32 78
e 32 87
e 32 122
e 32 165
e 32 177
e 33 35
e 33 47
e 33 121
e 33 136
e 33 141
e 33 147
e 33 159
e 33 171
e 34 151
e 34 170
e 35 81
e 36 99
e 36 135
e 37 92
e 37 99
e 38 94
e 38 115
e 38 135
e 39 61
e 40 41
e 40 50
e 40 58
e 40 70
e 40 83
e 40 103
e 40 106
e 40 127
e 40 141
e 40 149
e 40 161
e 42 76
e 42 107
e 43 98
e 43 115
e 43 163
e 44 174
e 45 61
e 45 89
e 45 108
e 46 69
e 46 94
e 46 160
e 47 63
e 48 76
e 48 92
e 48 174
e 49 61
e 49 99
e 49 115
e 50 160
e 50 163
e 51 120
e 52 55
e 52 61
e 53 56
e 53 74
e 53 80
e 53 90
e 53 109
e 53 117
e 53 129
e 53 146
e 53 166
e 54 170
e 55 60
e 55 70
e 55 78
e 55 80
e 55 110
e 55 127
e 55 131
e 55 133
e 55 150
e 56 138
e 56 173
e 57 99
e 57 108
e 57 151
e 58 81
e 58 173
e 59 99
e 61 66
e 61 71
e 61 100
e 61 143
e 61 155
e 61 167
e 62 107
e 63 68
e 63 70
e 63 82
e 63 101
e 63 145
e 63 157
e 63 166
e 63 168
e 63 172
e 63 176
e 64 89
e 64 115
e 64 151
e 65 92
e 65 108
e 66 108
e 66 170
e 67 99
e 68 138
e 69 72
e 69 75
e 69 82
e 69 88
e 69 93
e 69 113
e 69 117
e 69 131
e 69 145
e 71 99
e 72 107
e 73 151
e 73 163
e 74 76
e 75 81
e 76 83
e 76 100
e 76 112
e 76 114
e 76 116
e 76 133
e 76 134
e 76 140
e 76 167
e 77 120
e 77 138
e 79 174
e 80 160
e 81 104
e 81 110
e 81 113
e 81 132
e 81 156
e 82 98
e 83 135
e 84 115
e 85 135
e 85 170
e 86 98
e 86 107
e 86 138
e 87 94
e 87 163
e 88 94
e 88 120
e 89 97
e 89 118
e 89 125
e 89 128
e 89 132
e 89 153
e 89 165
e 89 176
e 90 92
e 91 92
e 91 174
e 92 95
e 92 106
e 92 109
e 92 122
e 92 128
e 92 144
e 92 161
e 93 160
e 94 105
e 94 122
e 94 157
e 94 159
e 94 175
e 94 180
e 95 170
e 96 151
e 96 173
e 97 115
e 98 104
e 98 121
e 98 136
e 98 142
e 98 144
e 98 150
e 98 177
e 99 148
e 99 156
e 99 172
e 100 120
e 101 107
e 101 170
e 103 135
e 104 138
e 105 108
e 105 173
e 107 111
e 107 114
e 107 126
e 107 132
e 107 148
e 107 159
e 108 125
e 108 137
e 108 142
e 108 150
e 108 154
e 108 180
e 110 174
e 112 163
e 115 130
e 115 143
e 115 144
e 115 179
e 116 120
e 117 163
e 118 135
e 119 138
e 119 160
e 120 136
e 120 152
e 120 156
e 120 176
e 120 178
e 121 160
e 123 135
e 123 174
e 124 138
e 124 160
e 126 151
e 127 138
e 129 135
e 130 170
e 131 174
e 133 151
e 135 142
e 135 158
e 137 163
e 138 139
e 138 157
e 138 175
e 139 163
e 139 174
e 140 151
e 141 163
e 143 170
e 147 173
e 147 174
e 148 160
e 151 154
e 151 165
e 152 160
e 152 170
e 154 170
e 155 163
e 158 174
e 160 162
e 160 171
e 162 173
e 162 174
e 163 168
e 166 173
e 167 173
e 168 174
e 173 179
